webassembly/ejemplos_dzn/15/folder15_json_97.dzn
TERM = { '.', 's(5)', 'in_1', 'in_6', 'in_0', 's(4)', 'in_3', 's(1)', 's(7)', 's(2)', 'in_2', 's(8)', 's(6)', 's(0)', 's(3)', 'local_0', 'local_1', 'in_4', 'in_7', 'in_5'};
null = '.';
s = 15;
n = 13;
ndeps = 6;
max_registers_sz = 5;
NR = 2;
registers = [|'local_0', 's(2)', |'local_1', 's(4)'|];
dependencies = [|'i32.store8_0', 'call[function_index(0)]_1', |'call[function_index(0)]_1', 'i32.load16_s_3', |'call[function_index(0)]_1', 'i32.load16_u_9', |'i32.load16_s_3', 'call[function_index(1)]_11', |'i32.load16_u_9', 'call[function_index(1)]_11', |'call[function_index(1)]_11', 'i32.load16_u_12'|];
GET_ENUM = { GET1, GET2, GET3, GET4, GET5, GET6, GET7};
SET_ENUM = { SET1, SET2, SET3, SET4, SET5, SET6, SET7};
TEE_ENUM = { TEE1, TEE2, TEE3, TEE4, TEE5, TEE6, TEE7};
N = 10;
OP = { 'i32.add_0', 'call[function_index(0)]_1', 'call[function_index(1)]_11', 'i32.store8_0', 'i32.load16_s_3', 'i32.sub_0', 'i32.load16_u_9', 'i32.load16_u_12', 'i32.sub_1', 'i32.sub_2' };
in_ops = [2, 2, 0, 2, 1, 2, 1, 1, 2, 2 ];
out_ops = [1, 0, 2, 0, 1, 1, 1, 1, 1, 1 ];
in1 = ['s(4)', 'in_2', '.', 'in_0', 'local_0', 'in_6', 's(3)', 's(6)', 's(0)', 's(1)' ];
in2 = ['s(7)', 'in_3', '.', 'in_1', '.', 'in_7', '.', '.', 'in_4', 'in_5' ];
in3 = ['.', '.', '.', '.', '.', '.', '.', '.', '.', '.' ];
out1 = ['s(8)', '.', 's(6)', '.', 's(0)', 's(3)', 's(4)', 's(7)', 's(1)', 's(2)' ];
out2 = ['.', '.', 's(5)', '.', '.', '.', '.', '.', '.', '.' ];
out3 = ['.', '.', '.', '.', '.', '.', '.', '.', '.', '.' ];
comm = [true, false, false, false, false, false, false, false, false, false ];
gas = [1, 1, 1, 1, 1, 1, 1, 1, 1, 1 ];
sz = [1, 1, 1, 1, 1, 1, 1, 1, 1, 1 ];
stor = [false, true, true, true, false, false, false, false, false, false ];
lb = [ 1, 1, 1, 1, 1, 1, 1, 1, 1, 1 ];
ub = [ 15, 15, 15, 15, 15, 15, 15, 15, 15, 15 ];
startstack = [ 'in_0', 'in_1', 'in_2', 'in_3', 'in_4', 'in_5', 'in_6', 'in_7', null, null, null, null, null ];
endstack = [ 's(8)', 's(5)', 's(4)', null, null, null, null, null, null, null, null, null, null ];
